instances/knapsack256.dat
param n = 256;
param costBound = 62405;
param value := 
[0] 670
[1] 101
[2] 219
[3] 996
[4] 287
[5] 467
[6] 1097
[7] 790
[8] 122
[9] 713
[10] 447
[11] 974
[12] 622
[13] 222
[14] 830
[15] 586
[16] 805
[17] 923
[18] 332
[19] 563
[20] 654
[21] 689
[22] 775
[23] 425
[24] 1070
[25] 1100
[26] 507
[27] 876
[28] 376
[29] 223
[30] 431
[31] 456
[32] 461
[33] 405
[34] 898
[35] 147
[36] 527
[37] 745
[38] 539
[39] 239
[40] 191
[41] 347
[42] 750
[43] 311
[44] 110
[45] 200
[46] 938
[47] 727
[48] 825
[49] 860
[50] 943
[51] 876
[52] 237
[53] 575
[54] 1077
[55] 1037
[56] 818
[57] 201
[58] 199
[59] 381
[60] 709
[61] 851
[62] 919
[63] 630
[64] 197
[65] 340
[66] 1075
[67] 348
[68] 326
[69] 868
[70] 341
[71] 131
[72] 684
[73] 713
[74] 448
[75] 981
[76] 575
[77] 467
[78] 278
[79] 812
[80] 741
[81] 510
[82] 998
[83] 257
[84] 350
[85] 924
[86] 491
[87] 342
[88] 201
[89] 572
[90] 736
[91] 822
[92] 187
[93] 875
[94] 752
[95] 471
[96] 967
[97] 437
[98] 154
[99] 985
[100] 609
[101] 304
[102] 1089
[103] 694
[104] 229
[105] 326
[106] 697
[107] 326
[108] 613
[109] 1021
[110] 301
[111] 637
[112] 327
[113] 212
[114] 182
[115] 1059
[116] 396
[117] 492
[118] 902
[119] 809
[120] 637
[121] 1040
[122] 1043
[123] 1043
[124] 1097
[125] 179
[126] 742
[127] 1022
[128] 305
[129] 461
[130] 651
[131] 1047
[132] 1004
[133] 961
[134] 500
[135] 1037
[136] 350
[137] 854
[138] 686
[139] 972
[140] 731
[141] 736
[142] 852
[143] 559
[144] 610
[145] 490
[146] 642
[147] 241
[148] 676
[149] 211
[150] 650
[151] 688
[152] 604
[153] 106
[154] 802
[155] 255
[156] 120
[157] 823
[158] 279
[159] 823
[160] 870
[161] 767
[162] 195
[163] 929
[164] 698
[165] 587
[166] 985
[167] 690
[168] 339
[169] 470
[170] 137
[171] 923
[172] 998
[173] 273
[174] 1023
[175] 156
[176] 361
[177] 1077
[178] 886
[179] 781
[180] 146
[181] 789
[182] 538
[183] 1033
[184] 216
[185] 909
[186] 603
[187] 687
[188] 703
[189] 786
[190] 294
[191] 566
[192] 441
[193] 456
[194] 645
[195] 884
[196] 152
[197] 962
[198] 910
[199] 323
[200] 360
[201] 641
[202] 297
[203] 161
[204] 313
[205] 516
[206] 562
[207] 162
[208] 162
[209] 305
[210] 303
[211] 252
[212] 369
[213] 1013
[214] 260
[215] 367
[216] 847
[217] 349
[218] 274
[219] 287
[220] 800
[221] 274
[222] 214
[223] 1039
[224] 512
[225] 619
[226] 1005
[227] 156
[228] 209
[229] 481
[230] 469
[231] 651
[232] 625
[233] 228
[234] 1087
[235] 912
[236] 760
[237] 853
[238] 249
[239] 644
[240] 864
[241] 784
[242] 496
[243] 930
[244] 1005
[245] 825
[246] 130
[247] 430
[248] 484
[249] 215
[250] 1081
[251] 138
[252] 583
[253] 545
[254] 276
[255] 719
;

param cost := 
[0] 570
[1] 1
[2] 119
[3] 896
[4] 187
[5] 367
[6] 997
[7] 690
[8] 22
[9] 613
[10] 347
[11] 874
[12] 522
[13] 122
[14] 730
[15] 486
[16] 705
[17] 823
[18] 232
[19] 463
[20] 554
[21] 589
[22] 675
[23] 325
[24] 970
[25] 1000
[26] 407
[27] 776
[28] 276
[29] 123
[30] 331
[31] 356
[32] 361
[33] 305
[34] 798
[35] 47
[36] 427
[37] 645
[38] 439
[39] 139
[40] 91
[41] 247
[42] 650
[43] 211
[44] 10
[45] 100
[46] 838
[47] 627
[48] 725
[49] 760
[50] 843
[51] 776
[52] 137
[53] 475
[54] 977
[55] 937
[56] 718
[57] 101
[58] 99
[59] 281
[60] 609
[61] 751
[62] 819
[63] 530
[64] 97
[65] 240
[66] 975
[67] 248
[68] 226
[69] 768
[70] 241
[71] 31
[72] 584
[73] 613
[74] 348
[75] 881
[76] 475
[77] 367
[78] 178
[79] 712
[80] 641
[81] 410
[82] 898
[83] 157
[84] 250
[85] 824
[86] 391
[87] 242
[88] 101
[89] 472
[90] 636
[91] 722
[92] 87
[93] 775
[94] 652
[95] 371
[96] 867
[97] 337
[98] 54
[99] 885
[100] 509
[101] 204
[102] 989
[103] 594
[104] 129
[105] 226
[106] 597
[107] 226
[108] 513
[109] 921
[110] 201
[111] 537
[112] 227
[113] 112
[114] 82
[115] 959
[116] 296
[117] 392
[118] 802
[119] 709
[120] 537
[121] 940
[122] 943
[123] 943
[124] 997
[125] 79
[126] 642
[127] 922
[128] 205
[129] 361
[130] 551
[131] 947
[132] 904
[133] 861
[134] 400
[135] 937
[136] 250
[137] 754
[138] 586
[139] 872
[140] 631
[141] 636
[142] 752
[143] 459
[144] 510
[145] 390
[146] 542
[147] 141
[148] 576
[149] 111
[150] 550
[151] 588
[152] 504
[153] 6
[154] 702
[155] 155
[156] 20
[157] 723
[158] 179
[159] 723
[160] 770
[161] 667
[162] 95
[163] 829
[164] 598
[165] 487
[166] 885
[167] 590
[168] 239
[169] 370
[170] 37
[171] 823
[172] 898
[173] 173
[174] 923
[175] 56
[176] 261
[177] 977
[178] 786
[179] 681
[180] 46
[181] 689
[182] 438
[183] 933
[184] 116
[185] 809
[186] 503
[187] 587
[188] 603
[189] 686
[190] 194
[191] 466
[192] 341
[193] 356
[194] 545
[195] 784
[196] 52
[197] 862
[198] 810
[199] 223
[200] 260
[201] 541
[202] 197
[203] 61
[204] 213
[205] 416
[206] 462
[207] 62
[208] 62
[209] 205
[210] 203
[211] 152
[212] 269
[213] 913
[214] 160
[215] 267
[216] 747
[217] 249
[218] 174
[219] 187
[220] 700
[221] 174
[222] 114
[223] 939
[224] 412
[225] 519
[226] 905
[227] 56
[228] 109
[229] 381
[230] 369
[231] 551
[232] 525
[233] 128
[234] 987
[235] 812
[236] 660
[237] 753
[238] 149
[239] 544
[240] 764
[241] 684
[242] 396
[243] 830
[244] 905
[245] 725
[246] 30
[247] 330
[248] 384
[249] 115
[250] 981
[251] 38
[252] 483
[253] 445
[254] 176
[255] 619
;
