outputs/knapsack256.output
CPLEX 12.9.0.0: optimal integer solution; objective 80605
4 MIP simplex iterations
0 branch-and-bound nodes
Select [*] :=
  0 1    26 1    52 1    78 1   104 1   130 1   156 1   182 1   208 1   234 1
  1 1    27 0    53 1    79 0   105 1   131 0   157 0   183 0   209 1   235 0
  2 1    28 1    54 0    80 1   106 1   132 0   158 1   184 1   210 1   236 1
  3 0    29 1    55 0    81 1   107 1   133 0   159 0   185 0   211 1   237 0
  4 1    30 1    56 0    82 0   108 1   134 1   160 0   186 1   212 1   238 1
  5 1    31 1    57 1    83 1   109 0   135 0   161 1   187 1   213 0   239 1
  6 0    32 1    58 1    84 1   110 1   136 1   162 1   188 1   214 1   240 0
  7 0    33 1    59 1    85 0   111 1   137 0   163 0   189 1   215 1   241 1
  8 1    34 0    60 1    86 1   112 1   138 1   164 1   190 1   216 0   242 1
  9 1    35 1    61 0    87 1   113 1   139 0   165 1   191 1   217 1   243 0
 10 1    36 1    62 0    88 1   114 1   140 1   166 0   192 1   218 1   244 0
 11 0    37 1    63 1    89 1   115 0   141 1   167 1   193 1   219 1   245 0
 12 1    38 1    64 1    90 1   116 1   142 0   168 1   194 1   220 1   246 1
 13 1    39 1    65 1    91 0   117 1   143 1   169 1   195 1   221 1   247 1
 14 0    40 1    66 0    92 1   118 0   144 1   170 1   196 1   222 1   248 1
 15 1    41 1    67 1    93 0   119 0   145 1   171 0   197 0   223 0   249 1
 16 0    42 1    68 1    94 1   120 1   146 1   172 0   198 0   224 1   250 0
 17 0    43 1    69 0    95 1   121 0   147 1   173 1   199 1   225 0   251 1
 18 1    44 1    70 1    96 0   122 0   148 1   174 0   200 1   226 0   252 1
 19 1    45 1    71 1    97 1   123 0   149 1   175 1   201 1   227 1   253 1
 20 1    46 0    72 1    98 1   124 0   150 1   176 1   202 1   228 1   254 1
 21 1    47 1    73 1    99 0   125 1   151 1   177 0   203 1   229 1   255 1
 22 1    48 0    74 1   100 1   126 1   152 1   178 0   204 1   230 1
 23 1    49 0    75 0   101 1   127 0   153 1   179 1   205 1   231 1
 24 0    50 0    76 1   102 0   128 1   154 1   180 1   206 1   232 1
 25 0    51 0    77 1   103 1   129 1   155 1   181 1   207 1   233 1
;

